
  22   10
  10   10   10   10   10   10   10   10   10   10

   0   0   0   0   0   0   0   0   0   0   0   1 2 
   2   0   0  10   0   0   0   0   0   0   0   1 3 
   7   0   0   0   0   0   0  10   0   0   0   2 7 4 
   6   0  10   0   0   0   0   0   0   0   0   2 8 5 
   3   0   0   0   0   0   0  10   0   0   0   2 13 6 
   4   0   0   0   0   0   0   0   0   0  10   2 12 9 
   3  10   0   0   0   0   0   0   0   0   0   2 12 9 
   1   0   0   0   0   0   0  10   0   0   0   2 13 10 
   7   0  10   0   0   0   0   0   0   0   0   1 10 
   5   0   0   0   0   0   0   0  10   0   0   1 11 
   3   0   0   0   0   0   0   0  10   0   0   2 15 14 
   2  10   0   0   0   0   0   0   0   0   0   2 15 14 
   4   0  10   0   0   0   0   0   0   0   0   2 15 14 
   5   0   0   0   0   0  10   0   0   0   0   2 21 16 
   7   0   0  10   0   0   0   0   0   0   0   2 21 18 
   3   0   0   0   0   0   0  10   0   0   0   1 17 
   6   0   0   0   0   0   0   0   0  10   0   1 18 
  10   0   0   0  10   0   0   0   0   0   0   1 19 
   6   0   0   0   0  10   0   0   0   0   0   1 20 
   1   0   0   0   0   0   0   0   0  10   0   1 22
   1   0   0   0   0   0   0   0   0  10   0   1 22
   0   0   0   0   0   0   0   0   0   0   0   0 
